
numDies = 20; % numero de dies
m = 3; % num linacs
s = 8; % num sessions per pacient
p = 45; % num pacients
tolerancia = 3; % diferencia maxima diaSesio i separacio
solicitud = 14; % dies maxims fins primera visita

disponible = [|  3,  3,  3,  3,  3, 24, 12, 10, 23, 15, 31, 35, 27, 33, 31, 49, 49, 49, 49, 49
              |  7,  3,  3,  6,  3, 25, 20, 16, 25, 18, 32, 39, 39, 36, 39, 49, 49, 49, 49, 49
              | 16, 13,  8,  8,  5, 25, 23, 19, 26, 18, 34, 41, 41, 37, 45, 49, 49, 49, 49, 49 |]; % capacitat de cada linac

duracio = [| 2, 2, 2, 2, 2, 2, 2, 2
            | 2, 2, 2, 2, 2, 2, 2, 2
            | 2, 2, 2, 2, 2, 2, 2, 2
            | 2, 2, 2, 2, 2, 2, 2, 2
            | 2, 2, 2, 2, 2, 2, 2, 2
            | 2, 2, 2, 2, 2, 2, 2, 2
            | 2, 2, 2, 2, 2, 2, 2, 2
            | 2, 2, 2, 2, 2, 2, 2, 2
            | 2, 2, 2, 2, 2, 3, 3, 3
            | 2, 2, 2, 2, 2, 3, 3, 3
            | 2, 2, 2, 2, 2, 3, 3, 3
            | 2, 2, 2, 2, 2, 3, 3, 3
            | 2, 2, 2, 2, 2, 3, 3, 3
            | 2, 2, 2, 2, 2, 3, 3, 3
            | 2, 2, 2, 2, 2, 3, 3, 3
            | 3, 3, 3, 3, 3, 2, 2, 2
            | 3, 3, 3, 3, 3, 2, 2, 2
            | 3, 3, 3, 3, 3, 2, 2, 2
            | 3, 3, 3, 3, 3, 2, 2, 2
            | 3, 3, 3, 3, 3, 2, 2, 2
            | 3, 3, 3, 3, 3, 2, 2, 2
            | 3, 3, 3, 3, 3, 2, 2, 2
            | 3, 3, 3, 3, 3, 2, 2, 2
            | 3, 3, 3, 3, 3, 2, 2, 2
            | 3, 3, 3, 3, 3, 2, 2, 2
            | 3, 3, 3, 3, 3, 2, 2, 2
            | 3, 3, 3, 3, 3, 2, 2, 2
            | 3, 3, 3, 3, 3, 3, 3, 3
            | 3, 3, 3, 3, 3, 3, 3, 3
            | 3, 3, 3, 3, 3, 3, 3, 3
            | 3, 3, 3, 3, 3, 3, 3, 3
            | 3, 3, 3, 3, 3, 3, 3, 3
            | 3, 3, 3, 3, 3, 3, 3, 3
            | 3, 3, 3, 3, 3, 3, 3, 3
            | 3, 3, 3, 3, 3, 3, 3, 3
            | 3, 3, 3, 3, 3, 3, 3, 3
            | 3, 3, 3, 3, 3, 3, 3, 3
            | 3, 3, 3, 3, 3, 3, 3, 3
            | 3, 3, 3, 3, 3, 3, 3, 3
            | 3, 3, 3, 3, 3, 3, 3, 3
            | 3, 3, 3, 3, 3, 3, 3, 3
            | 3, 3, 3, 3, 3, 3, 3, 3
            | 3, 3, 3, 3, 3, 3, 3, 3
            | 3, 3, 3, 3, 3, 3, 3, 3
            | 3, 3, 3, 3, 3, 3, 3, 3 |]; % duracion de la sesion (2 o 3 instants de temps)(30 o 45 mins)

separacio = [| 3, 1, 3, 1, 1, 2, 2
              | 3, 1, 3, 1, 1, 2, 2
              | 1, 2, 1, 2, 1, 2, 1
              | 1, 2, 1, 2, 1, 2, 1
              | 1, 2, 1, 2, 1, 2, 1
              | 1, 2, 1, 2, 1, 2, 1
              | 1, 2, 1, 2, 1, 2, 1
              | 1, 2, 1, 2, 1, 2, 1
              | 3, 1, 3, 1, 1, 2, 1
              | 3, 1, 3, 1, 1, 2, 1
              | 3, 1, 3, 1, 1, 2, 1
              | 3, 1, 3, 1, 1, 2, 2
              | 3, 1, 3, 1, 1, 2, 2
              | 1, 2, 1, 2, 1, 2, 1
              | 1, 2, 1, 2, 1, 2, 1
              | 1, 2, 1, 2, 1, 2, 1
              | 1, 2, 1, 2, 1, 2, 1
              | 1, 2, 1, 2, 1, 2, 1
              | 1, 2, 1, 2, 1, 2, 1
              | 1, 2, 1, 2, 1, 2, 1
              | 1, 2, 1, 2, 1, 2, 1
              | 1, 2, 1, 2, 1, 2, 1
              | 1, 2, 1, 2, 1, 2, 1
              | 1, 2, 1, 2, 1, 2, 1
              | 1, 2, 1, 2, 1, 2, 1
              | 1, 2, 1, 2, 1, 2, 1
              | 3, 1, 3, 1, 1, 2, 2
              | 3, 1, 3, 1, 1, 2, 2
              | 3, 1, 3, 1, 1, 2, 2
              | 3, 1, 3, 1, 1, 2, 2
              | 3, 1, 3, 1, 1, 2, 2
              | 3, 1, 3, 1, 1, 2, 2
              | 3, 1, 3, 1, 1, 2, 2
              | 3, 1, 3, 1, 1, 2, 1
              | 3, 1, 3, 1, 1, 2, 1
              | 3, 1, 3, 1, 1, 2, 1
              | 3, 1, 3, 1, 1, 2, 1
              | 3, 1, 3, 1, 1, 2, 1
              | 3, 1, 3, 1, 1, 2, 1
              | 3, 1, 3, 1, 1, 2, 1
              | 3, 1, 3, 1, 1, 2, 1
              | 3, 1, 3, 1, 1, 2, 1
              | 3, 1, 3, 1, 1, 2, 1
              | 3, 1, 3, 1, 1, 2, 2
              | 1, 2, 1, 2, 1, 2, 1 |]; % separacio ideal entre sesions 

grup = [1, 1, 2, 2, 2, 2, 2, 2, 3, 3, 3, 4, 4, 5, 5, 5, 5, 5, 5, 5, 5, 5, 5, 5, 5, 5, 6, 6, 6, 6, 6, 6, 6, 7, 7, 7, 7, 7, 7, 7, 7, 7, 7, 8, 9]; % pacients amb mateix grup son identics